NAME: random_points
TYPE: TSP
DIMENSION: 32
EDGE_WEIGHT_TYPE: EUC_2D
NODE_COORD_SECTION
1 150 491
2 325 901
3 636 539
4 441 13
5 669 730
6 859 594
7 822 780
8 655 4
9 936 885
10 845 798
11 141 696
12 772 177
13 606 396
14 161 782
15 49 501
16 55 241
17 449 191
18 406 272
19 951 230
20 676 323
21 17 217
22 210 620
23 125 559
24 890 861
25 192 299
26 381 881
27 840 582
28 451 508
29 387 373
30 657 534
31 970 688
32 548 722
EOF
